NAME : portcgen-20-12
COMMENT : portcgen N=20, seed=12
TYPE : TSP
DIMENSION : 20
EDGE_WEIGHT_TYPE : EUC_2D
NODE_COORD_SECTION
1 112520 229792
2 2888 34618
3 -203529 -101021
4 145442 268946
5 -331019 -256784
6 -45558 119732
7 -15149 443450
8 311262 172600
9 175030 237689
10 124733 -11391
11 275762 -17679
12 336700 278805
13 135950 -221961
14 96959 -24019
15 -292246 316279
16 421918 618320
17 -342640 -204455
18 199431 -15013
19 -157239 -357537
20 65495 16663
